46 118 154 126 77 82 187 2 101 42 188 38 130 9 181 149 17 103 91 58 135 141 115 95 47 56 106 138 40 20 147 10 97 44 102 158 32 176 174 62 125 6 197 166 167 89 51 119 73 28 90 98 186 163 190 74 81 178 93 111 15 19 8 132 94 146 121 3 7 180 189 60 137 85 59 168 50 112 114 116 144 143 145 72 75 160 185 139 39 157 170 11 113 177 80 65 183 128 131 37 107 172 55 25 29 61 195 129 159 12 76 173 162 21 35 192 87 4 26 34 117 199 13 196 156 0 122 83 14 69 161 71 68 198 92 24 27 22 5 41 105 54 30 67 123 191 1 18 36 43 164 148 194 182 48 152 120 169 184 127 100 108 193 16 104 53 153 99 70 151 175 79 134 88 110 57 84 52 124 109 133 45 78 165 150 179 64 140 23 136 155 49 31 96 63 142 33 171 86 66